Version identifier: 22.1.1.0 | 2022-11-28 | 9160aff4d
CPXPARAM_ClockType                               1
CPXPARAM_Read_DataCheck                          1
CPXPARAM_Threads                                 1
CPXPARAM_Simplex_Tolerances_Optimality           1.0000000000000001e-09
CPXPARAM_TimeLimit                               7200
CPXPARAM_MIP_Tolerances_AbsMIPGap                0
CPXPARAM_MIP_Tolerances_MIPGap                   0
CPXPARAM_MIP_Tolerances_Integrality              0
Tried aggregator 1 time.
MIQP Presolve eliminated 3 rows and 1 columns.
MIQP Presolve modified 2 coefficients.
Reduced MIQP has 44756 rows, 3035 columns, and 240416 nonzeros.
Reduced MIQP has 2276 binaries, 759 generals, 0 SOSs, and 0 indicators.
Reduced MIQP objective Q matrix has 759 nonzeros.
Presolve time = 0.95 sec. (470.13 ticks)
Probing time = 0.01 sec. (7.61 ticks)
Tried aggregator 1 time.
Reduced MIQP has 44756 rows, 3035 columns, and 240416 nonzeros.
Reduced MIQP has 2276 binaries, 759 generals, 0 SOSs, and 0 indicators.
Reduced MIQP objective Q matrix has 759 nonzeros.
Presolve time = 0.56 sec. (357.86 ticks)
Classifier predicts products in MIQP should be linearized.
Probing time = 0.01 sec. (7.61 ticks)
Clique table members: 36483.
MIP emphasis: balance optimality and feasibility.
MIP search method: dynamic search.
Parallel mode: none, using 1 thread.
Root relaxation solution time = 4.37 sec. (6382.26 ticks)

        Nodes                                         Cuts/
   Node  Left     Objective  IInf  Best Integer    Best Bound    ItCnt     Gap

      0     0      759.0000  1518                    759.0000       20         
      0     0      758.8090  1344               ZeroHalf: 388     7042         
      0     0      758.8090   900                  Cuts: 7451    15628         
      0     0      759.0000  1016                  Cuts: 9997  1139447         
      0     0      759.0000   980                  Cuts: 9998  1146601         

Clique cuts applied:  12880
Implied bound cuts applied:  160
Zero-half cuts applied:  3816
Gomory fractional cuts applied:  2

Root node processing (before b&c):
  Real time             = 7200.14 sec. (1704866.69 ticks)
Sequential b&c:
  Real time             =    0.00 sec. (0.00 ticks)
                          ------------
Total (root+branch&cut) = 7200.14 sec. (1704866.69 ticks)
Solution is infeasible.

---------------------
@@@ MIP_time_limit_infeasible
Traceback (most recent call last):
  File "/scratch/scherif/DiverseSAT-journal_sup/DiverseSAT_Supplementary_Experiments/experiment-1/cplex/jobs/../solvers/CPLEX-QP-SE.py", line 118, in <module>
    print(f">>> Benchmark {os.path.basename(cnf_file)} k {k} OPT {int(prob.solution.get_objective_value())}"
  File "/users/scherif/.local/lib/python3.9/site-packages/cplex/_internal/_subinterfaces.py", line 7211, in get_objective_value
    return CPX_PROC.getobjval(self._env._e, self._cplex._lp)
  File "/users/scherif/.local/lib/python3.9/site-packages/cplex/_internal/_procedural.py", line 2055, in getobjval
    check_status(env, status)
  File "/users/scherif/.local/lib/python3.9/site-packages/cplex/_internal/_procedural.py", line 249, in __call__
    raise CplexSolverError(error_string, env, status)
cplex.exceptions.errors.CplexSolverError: CPLEX Error  1217: No solution exists.
